Route #1: 139 133 14 58 25 95 96 24 98 132 68
Route #2: 47 56 146 149 4 109 142 145 144 12
Route #3: 37 137 44 107 65 93 42 92 147 17 63
Route #4: 103 90 71 123 124 33 72 91 45 15 52 108
Route #5: 60 26 113 114 99 43 86 97
Route #6: 110 18 55 134 67 13 136 66 111 135 143
Route #7: 11 126 16 127 53 129 29 79 21 118 50 130 78
Route #8: 87 150 19 64 88 40 94 41 141 148
Route #9: 46 102 6 57 23 69 7 61 112 48 138 27
Route #10: 122 125 106 73 117 89 39 54 10 5
Route #11: 100 2 83 131 20 59 3 101 22 51 32 77
Route #12: 76 49 104 30 105 75 74 34 9 62 38
Route #13: 119 1 120 80 70 28 31 82 140 8 81
Route #14: 128 84 35 85 36 115 121 116
Cost 1161.244379